Route #1: 726 213 932 122 606 673 625 729 796
Route #2: 110 854 927 68 667 51 516 866
Route #3: 262 185 330 948 103 415 500 632
Route #4: 247 819 281 800 634 82 173 61 610
Route #5: 53 260 499 513 761 318 172 101 845
Route #6: 14 706 201 695 802 257 743 559 541
Route #7: 486 487 141 911 74 407 278 877
Route #8: 712 21 928 967 986 540 713 142 970
Route #9: 790 28 704 459 751 527
Route #10: 697 775 299 873 893 607 182 384 253
Route #11: 753 844 721 455 461 898 687 478
Route #12: 117 489 411 770 547 586 664 264 532
Distance: 25630
